(set-logic QF_BV)
(declare-fun _substvar_131_ () (_ BitVec 143))
(declare-fun _substvar_137_ () (_ BitVec 143))
(declare-fun _substvar_149_ () (_ BitVec 1))
(declare-fun _substvar_182_ () Bool)
(declare-fun _substvar_94_ () (_ BitVec 143))
(declare-fun _substvar_142_ () (_ BitVec 143))
(declare-fun _substvar_152_ () (_ BitVec 143))
(assert (and true true true true true true true true true true true true true true true true true true true true true true true true true true true true true true true true true true true true true true true true true true true true true true true true true true true true true true true true true true true true true true true true true true true true true true true true true true true true true true true true true true true true true true true true true true true true true true true true true true true true true true true true true true true true true true true true true true true true true true true true true true true true true true true true true true true true true true true true true true true true true true true true true true true true true true true true true true true (ite _substvar_182_ (= _substvar_142_ (_ bv0 143)) (= _substvar_142_ (concat (_ bv0 142) _substvar_149_))) (= _substvar_152_ (concat ((_ extract 141 0) _substvar_142_) (bvxor (bvxor (bvxor ((_ extract 142 142) _substvar_142_) ((_ extract 141 141) _substvar_142_)) (_ bv0 1)) (_ bv0 1)))) (= _substvar_131_ (concat ((_ extract 141 0) _substvar_152_) (_ bv0 1))) (= _substvar_137_ (concat (_ bv0 142) (bvxor (_ bv0 1) ((_ extract 121 121) _substvar_131_)))) (= _substvar_94_ (concat ((_ extract 141 0) _substvar_137_) (_ bv0 1))) true true true (= (= (_ bv0 143) _substvar_94_) false)))
(check-sat)
(exit)
